networks/zoo_122_2196/zoo_122_2196-lower.txt
Number of groups: 69
Flow 12: {21 13 0} {13 74 0} 
Flow 33: {1 36 0} {36 35 0} {35 37 0} {37 98 0} 
Flow 56: {47 61 0} {61 122 0} 
Flow 68: {2 5 0} {5 56 0} {56 60 0} 
Flow 69: {3 36 0} {36 1 0} {1 62 0} 
Flow 134: {4 38 0} {38 57 0} {57 18 0} {18 79 0} 
Flow 192: {15 30 0} {30 31 0} {31 92 0} 
Flow 206: {5 11 0} {11 45 0} {45 106 0} 
Flow 261: {6 56 0} {56 19 0} {19 42 0} {42 103 0} 
Flow 293: {7 56 0} {56 15 0} {15 27 0} {27 88 0} 
Flow 312: {8 5 0} {5 66 0} 
Flow 352: {9 23 0} {23 22 0} {22 24 0} {24 85 0} 
Flow 391: {10 59 0} {59 38 0} {38 26 0} {26 87 0} 
Flow 411: {11 46 0} {46 7 0} {7 68 0} 
Flow 424: {22 21 0} {21 82 0} 
Flow 444: {19 50 0} {50 43 0} {43 104 0} 
Flow 473: {12 56 0} {56 38 0} {38 39 0} 
Flow 480: {13 21 0} {21 22 0} {22 19 0} {19 80 0} 
Flow 494: {14 30 0} {30 60 0} {60 41 0} {41 102 0} 
Flow 569: {16 38 0} {38 25 0} {25 86 0} 
Flow 610: {17 35 0} {35 96 0} 
Flow 659: {18 35 0} {35 15 0} {15 58 0} {58 119 0} 
Flow 660: {57 38 0} {38 59 0} {59 120 0} 
Flow 698: {20 22 0} 
Flow 770: {22 20 0} {20 81 0} 
Flow 857: {24 22 0} {22 11 0} {11 56 0} {56 28 0} {28 89 0} 
Flow 866: {25 38 0} {38 36 0} {36 3 0} {3 64 0} 
Flow 897: {40 60 0} {60 121 0} 
Flow 902: {26 38 0} {38 99 0} 
Flow 909: {27 15 0} {15 36 0} {36 97 0} 
Flow 940: {28 56 0} {56 29 0} {29 90 0} 
Flow 982: {29 56 0} {56 11 0} {11 22 0} {22 83 0} 
Flow 1057: {31 30 0} {30 15 0} {15 76 0} 
Flow 1121: {33 50 0} 
Flow 1130: {34 32 0} {32 35 0} {35 36 0} {36 16 0} {16 77 0} 
Flow 1185: {35 18 0} {18 57 0} {57 39 0} {39 100 0} 
Flow 1223: {35 17 0} {17 78 0} 
Flow 1261: {36 57 0} {57 118 0} 
Flow 1266: {37 38 0} {38 56 0} {56 117 0} 
Flow 1289: {23 84 0} 
Flow 1296: {30 91 0} 
Flow 1343: {39 57 0} 
Flow 1371: {39 38 0} {38 52 0} {52 113 0} 
Flow 1428: {41 60 0} {60 30 0} {30 14 0} {14 75 0} 
Flow 1472: {42 19 0} {19 22 0} {22 23 0} {23 9 0} {9 70 0} 
Flow 1519: {43 50 0} 
Flow 1565: {44 19 0} {19 56 0} {56 45 0} 
Flow 1579: {45 56 0} {56 6 0} {6 67 0} 
Flow 1580: {45 11 0} {11 72 0} 
Flow 1592: {46 11 0} {11 5 0} {5 8 0} {8 69 0} 
Flow 1674: {48 50 0} {50 33 0} {33 94 0} 
Flow 1707: {49 50 0} {50 19 0} {19 44 0} {44 105 0} 
Flow 1742: {32 34 0} {34 95 0} 
Flow 1756: {50 48 0} {48 109 0} 
Flow 1757: {50 49 0} {49 110 0} 
Flow 1758: {50 51 0} {51 112 0} 
Flow 1773: {51 50 0} {50 15 0} {15 35 0} {35 32 0} {32 93 0} 
Flow 1812: {52 38 0} {38 40 0} {40 101 0} 
Flow 1877: {53 36 0} {36 38 0} {38 41 0} {41 55 0} {55 116 0} 
Flow 1896: {54 16 0} {16 36 0} {36 53 0} {53 114 0} 
Flow 1900: {55 41 0} {41 38 0} {38 4 0} {4 65 0} 
Flow 1926: {56 12 0} {12 73 0} 
Flow 1968: {38 16 0} {16 54 0} {54 115 0} 
Flow 2016: {57 36 0} {36 15 0} {15 47 0} {47 108 0} 
Flow 2061: {58 15 0} {15 56 0} {56 7 0} {7 46 0} {46 107 0} 
Flow 2080: {59 10 0} {10 71 0} 
Flow 2123: {60 56 0} {56 5 0} {5 2 0} {2 63 0} 
Flow 2152: {60 40 0} {40 38 0} {38 37 0} 
Flow 2193: {61 47 0} {47 15 0} {15 50 0} {50 111 0} 
Time taken running everything: 12 seconds
