networks/zoo_122_2196/zoo_122_2196-lower.sol
<?xml version = "1.0" encoding="UTF-8" standalone="yes"?>
<CPLEXSolution version="1.2">
 <header
   problemName="networks/zoo_122_2196/zoo_122_2196-lower.lp"
   solutionName="incumbent"
   solutionIndex="-1"
   objectiveValue="61"
   solutionTypeValue="3"
   solutionTypeString="primal"
   solutionStatusValue="101"
   solutionStatusString="integer optimal solution"
   solutionMethodString="mip"
   primalFeasible="1"
   dualFeasible="1"
   MIPNodes="0"
   MIPIterations="0"
   writeLevel="3"/>
 <quality
   epInt="1.0000000000000001e-05"
   epRHS="9.9999999999999995e-07"
   maxIntInfeas="0"
   maxPrimalInfeas="0"
   maxX="1"
   maxSlack="1"/>
 <variables>
  <variable name="Y(1,2)" index="1" value="1"/>
  <variable name="Y(2,3)" index="124" value="1"/>
  <variable name="Y(3,4)" index="247" value="1"/>
  <variable name="Y(4,5)" index="370" value="1"/>
  <variable name="Y(5,6)" index="493" value="1"/>
  <variable name="Y(6,7)" index="616" value="1"/>
  <variable name="Y(7,8)" index="739" value="1"/>
  <variable name="Y(8,9)" index="862" value="1"/>
  <variable name="Y(9,10)" index="985" value="1"/>
  <variable name="Y(10,11)" index="1108" value="1"/>
  <variable name="Y(11,12)" index="1231" value="1"/>
  <variable name="Y(12,13)" index="1354" value="1"/>
  <variable name="Y(13,14)" index="1477" value="1"/>
  <variable name="Y(14,15)" index="1600" value="1"/>
  <variable name="Y(15,16)" index="1723" value="1"/>
  <variable name="Y(16,17)" index="1846" value="1"/>
  <variable name="Y(17,18)" index="1969" value="1"/>
  <variable name="Y(18,19)" index="2092" value="1"/>
  <variable name="Y(19,20)" index="2215" value="1"/>
  <variable name="Y(20,21)" index="2338" value="1"/>
  <variable name="Y(21,22)" index="2461" value="1"/>
  <variable name="Y(22,24)" index="2585" value="1"/>
  <variable name="Y(23,25)" index="2708" value="1"/>
  <variable name="Y(24,26)" index="2831" value="1"/>
  <variable name="Y(25,27)" index="2954" value="1"/>
  <variable name="Y(26,28)" index="3077" value="1"/>
  <variable name="Y(27,29)" index="3200" value="1"/>
  <variable name="Y(28,32)" index="3325" value="1"/>
  <variable name="Y(29,33)" index="3448" value="1"/>
  <variable name="Y(30,34)" index="3571" value="1"/>
  <variable name="Y(31,35)" index="3694" value="1"/>
  <variable name="Y(32,36)" index="3817" value="1"/>
  <variable name="Y(33,37)" index="3940" value="1"/>
  <variable name="Y(34,38)" index="4063" value="1"/>
  <variable name="Y(35,39)" index="4186" value="1"/>
  <variable name="Y(36,40)" index="4309" value="1"/>
  <variable name="Y(37,41)" index="4432" value="1"/>
  <variable name="Y(38,42)" index="4555" value="1"/>
  <variable name="Y(39,43)" index="4678" value="1"/>
  <variable name="Y(40,44)" index="4801" value="1"/>
  <variable name="Y(41,45)" index="4924" value="1"/>
  <variable name="Y(42,46)" index="5047" value="1"/>
  <variable name="Y(43,47)" index="5170" value="1"/>
  <variable name="Y(44,48)" index="5293" value="1"/>
  <variable name="Y(45,49)" index="5416" value="1"/>
  <variable name="Y(46,50)" index="5539" value="1"/>
  <variable name="Y(47,51)" index="5662" value="1"/>
  <variable name="Y(48,52)" index="5785" value="1"/>
  <variable name="Y(49,53)" index="5908" value="1"/>
  <variable name="Y(50,54)" index="6031" value="1"/>
  <variable name="Y(51,56)" index="6155" value="1"/>
  <variable name="Y(52,57)" index="6278" value="1"/>
  <variable name="Y(53,58)" index="6401" value="1"/>
  <variable name="Y(54,59)" index="6524" value="1"/>
  <variable name="Y(55,60)" index="6647" value="1"/>
  <variable name="Y(56,61)" index="6770" value="1"/>
  <variable name="Y(69,1)" index="8296" value="1"/>
  <variable name="Y(192,31)" index="23332" value="1"/>
  <variable name="Y(243,23)" index="29546" value="1"/>
  <variable name="Y(274,55)" index="33360" value="1"/>
  <variable name="Y(1296,30)" index="158019" value="1"/>
  <variable name="X(1,36,1)" index="267912" value="1"/>
  <variable name="X(1,62,69)" index="270176" value="1"/>
  <variable name="X(2,5,57)" index="272360" value="1"/>
  <variable name="X(2,63,1)" index="274500" value="1"/>
  <variable name="X(3,36,69)" index="276764" value="1"/>
  <variable name="X(3,64,2)" index="278893" value="1"/>
  <variable name="X(4,38,121)" index="281208" value="1"/>
  <variable name="X(4,65,3)" index="283286" value="1"/>
  <variable name="X(5,2,1)" index="285480" value="1"/>
  <variable name="X(5,8,7)" index="287682" value="1"/>
  <variable name="X(5,11,59)" index="289930" value="1"/>
  <variable name="X(5,56,57)" index="292124" value="1"/>
  <variable name="X(5,66,4)" index="294267" value="1"/>
  <variable name="X(6,56,222)" index="296681" value="1"/>
  <variable name="X(6,67,5)" index="298660" value="1"/>
  <variable name="X(7,46,42)" index="300893" value="1"/>
  <variable name="X(7,56,281)" index="303328" value="1"/>
  <variable name="X(7,68,6)" index="305249" value="1"/>
  <variable name="X(8,5,310)" index="307749" value="1"/>
  <variable name="X(8,69,7)" index="309642" value="1"/>
  <variable name="X(9,23,334)" index="312165" value="1"/>
  <variable name="X(9,70,8)" index="314035" value="1"/>
  <variable name="X(10,59,380)" index="316603" value="1"/>
  <variable name="X(10,71,9)" index="318428" value="1"/>
  <variable name="X(11,5,334)" index="320949" value="1"/>
  <variable name="X(11,22,127)" index="322938" value="1"/>
  <variable name="X(11,45,206)" index="325213" value="1"/>
  <variable name="X(11,46,207)" index="327410" value="1"/>
  <variable name="X(11,56,335)" index="329734" value="1"/>
  <variable name="X(11,72,10)" index="331605" value="1"/>
  <variable name="X(12,56,462)" index="334253" value="1"/>
  <variable name="X(12,73,11)" index="335998" value="1"/>
  <variable name="X(13,21,479)" index="338662" value="1"/>
  <variable name="X(13,74,12)" index="340391" value="1"/>
  <variable name="X(14,30,485)" index="343060" value="1"/>
  <variable name="X(14,75,13)" index="344784" value="1"/>
  <variable name="X(15,27,25)" index="346992" value="1"/>
  <variable name="X(15,30,13)" index="349176" value="1"/>
  <variable name="X(15,35,62)" index="351421" value="1"/>
  <variable name="X(15,36,57)" index="353612" value="1"/>
  <variable name="X(15,47,43)" index="355794" value="1"/>
  <variable name="X(15,50,8)" index="357955" value="1"/>
  <variable name="X(15,56,1)" index="360144" value="1"/>
  <variable name="X(15,58,53)" index="362392" value="1"/>
  <variable name="X(15,76,14)" index="364549" value="1"/>
  <variable name="X(16,36,553)" index="367284" value="1"/>
  <variable name="X(16,38,552)" index="369479" value="1"/>
  <variable name="X(16,54,50)" index="371173" value="1"/>
  <variable name="X(16,77,15)" index="373334" value="1"/>
  <variable name="X(17,35,594)" index="376109" value="1"/>
  <variable name="X(17,78,16)" index="377727" value="1"/>
  <variable name="X(18,35,631)" index="380538" value="1"/>
  <variable name="X(18,57,613)" index="382716" value="1"/>
  <variable name="X(18,79,17)" index="384316" value="1"/>
  <variable name="X(19,22,8)" index="386503" value="1"/>
  <variable name="X(19,42,38)" index="388729" value="1"/>
  <variable name="X(19,44,40)" index="390927" value="1"/>
  <variable name="X(19,50,358)" index="393441" value="1"/>
  <variable name="X(19,56,662)" index="395941" value="1"/>
  <variable name="X(19,80,18)" index="397493" value="1"/>
  <variable name="X(20,22,688)" index="400359" value="1"/>
  <variable name="X(20,81,19)" index="401886" value="1"/>
  <variable name="X(21,13,12)" index="404075" value="1"/>
  <variable name="X(21,22,479)" index="406738" value="1"/>
  <variable name="X(21,82,20)" index="408475" value="1"/>
  <variable name="X(22,11,334)" index="410985" value="1"/>
  <variable name="X(22,19,348)" index="413195" value="1"/>
  <variable name="X(22,20,19)" index="415062" value="1"/>
  <variable name="X(22,21,12)" index="417251" value="1"/>
  <variable name="X(22,23,8)" index="419443" value="1"/>
  <variable name="X(22,24,22)" index="421653" value="1"/>
  <variable name="X(22,83,21)" index="423848" value="1"/>
  <variable name="X(23,9,8)" index="426031" value="1"/>
  <variable name="X(23,22,334)" index="428553" value="1"/>
  <variable name="X(23,84,243)" index="430658" value="1"/>
  <variable name="X(24,22,850)" index="433461" value="1"/>
  <variable name="X(24,85,22)" index="434829" value="1"/>
  <variable name="X(25,38,866)" index="437869" value="1"/>
  <variable name="X(25,86,23)" index="439222" value="1"/>
  <variable name="X(26,38,898)" index="442293" value="1"/>
  <variable name="X(26,87,24)" index="443615" value="1"/>
  <variable name="X(27,15,906)" index="446693" value="1"/>
  <variable name="X(27,88,25)" index="448008" value="1"/>
  <variable name="X(28,56,914)" index="451093" value="1"/>
  <variable name="X(28,89,26)" index="452401" value="1"/>
  <variable name="X(29,56,972)" index="455543" value="1"/>
  <variable name="X(29,90,27)" index="456794" value="1"/>
  <variable name="X(30,14,13)" index="458976" value="1"/>
  <variable name="X(30,15,485)" index="461644" value="1"/>
  <variable name="X(30,31,192)" index="463547" value="1"/>
  <variable name="X(30,60,494)" index="466045" value="1"/>
  <variable name="X(30,91,1296)" index="469043" value="1"/>
  <variable name="X(31,30,1054)" index="470997" value="1"/>
  <variable name="X(31,92,192)" index="472331" value="1"/>
  <variable name="X(32,34,30)" index="474365" value="1"/>
  <variable name="X(32,35,1069)" index="477600" value="1"/>
  <variable name="X(32,93,28)" index="478755" value="1"/>
  <variable name="X(33,50,1121)" index="482044" value="1"/>
  <variable name="X(33,94,29)" index="483148" value="1"/>
  <variable name="X(34,32,1122)" index="486437" value="1"/>
  <variable name="X(34,95,30)" index="487541" value="1"/>
  <variable name="X(35,15,596)" index="490303" value="1"/>
  <variable name="X(35,17,16)" index="491919" value="1"/>
  <variable name="X(35,18,17)" index="494116" value="1"/>
  <variable name="X(35,32,28)" index="496323" value="1"/>
  <variable name="X(35,36,594)" index="499085" value="1"/>
  <variable name="X(35,37,33)" index="500720" value="1"/>
  <variable name="X(35,96,31)" index="502914" value="1"/>
  <variable name="X(36,1,69)" index="505148" value="1"/>
  <variable name="X(36,3,2)" index="507277" value="1"/>
  <variable name="X(36,15,1)" index="509472" value="1"/>
  <variable name="X(36,16,15)" index="511682" value="1"/>
  <variable name="X(36,35,16)" index="513879" value="1"/>
  <variable name="X(36,38,3)" index="516062" value="1"/>
  <variable name="X(36,53,49)" index="518304" value="1"/>
  <variable name="X(36,57,52)" index="520503" value="1"/>
  <variable name="X(36,97,32)" index="522679" value="1"/>
  <variable name="X(37,38,1266)" index="526109" value="1"/>
  <variable name="X(37,98,33)" index="527072" value="1"/>
  <variable name="X(38,4,3)" index="529238" value="1"/>
  <variable name="X(38,16,60)" index="531491" value="1"/>
  <variable name="X(38,25,23)" index="533650" value="1"/>
  <variable name="X(38,26,24)" index="535847" value="1"/>
  <variable name="X(38,36,122)" index="538141" value="1"/>
  <variable name="X(38,37,148)" index="540363" value="1"/>
  <variable name="X(38,39,35)" index="542446" value="1"/>
  <variable name="X(38,40,36)" index="544643" value="1"/>
  <variable name="X(38,41,37)" index="546840" value="1"/>
  <variable name="X(38,52,48)" index="549047" value="1"/>
  <variable name="X(38,56,121)" index="551316" value="1"/>
  <variable name="X(38,57,134)" index="553525" value="1"/>
  <variable name="X(38,59,9)" index="555596" value="1"/>
  <variable name="X(38,99,34)" index="557817" value="1"/>
  <variable name="X(39,38,1327)" index="561306" value="1"/>
  <variable name="X(39,57,1343)" index="563518" value="1"/>
  <variable name="X(39,100,35)" index="564406" value="1"/>
  <variable name="X(40,38,1378)" index="567945" value="1"/>
  <variable name="X(40,60,164)" index="568927" value="1"/>
  <variable name="X(40,101,36)" index="570995" value="1"/>
  <variable name="X(41,38,1418)" index="574573" value="1"/>
  <variable name="X(41,55,274)" index="575625" value="1"/>
  <variable name="X(41,60,1428)" index="578975" value="1"/>
  <variable name="X(41,102,37)" index="579780" value="1"/>
  <variable name="X(42,19,1465)" index="583404" value="1"/>
  <variable name="X(42,103,38)" index="584173" value="1"/>
  <variable name="X(43,50,1506)" index="587837" value="1"/>
  <variable name="X(43,104,39)" index="588566" value="1"/>
  <variable name="X(44,19,1527)" index="592250" value="1"/>
  <variable name="X(44,105,40)" index="592959" value="1"/>
  <variable name="X(45,11,1580)" index="596695" value="1"/>
  <variable name="X(45,56,1579)" index="598890" value="1"/>
  <variable name="X(45,106,41)" index="599548" value="1"/>
  <variable name="X(46,7,339)" index="602042" value="1"/>
  <variable name="X(46,11,286)" index="604185" value="1"/>
  <variable name="X(46,107,42)" index="606137" value="1"/>
  <variable name="X(47,15,1620)" index="609911" value="1"/>
  <variable name="X(47,61,56)" index="610543" value="1"/>
  <variable name="X(47,108,43)" index="612726" value="1"/>
  <variable name="X(48,50,1656)" index="616535" value="1"/>
  <variable name="X(48,109,44)" index="617119" value="1"/>
  <variable name="X(49,50,1689)" index="620960" value="1"/>
  <variable name="X(49,110,45)" index="621512" value="1"/>
  <variable name="X(50,15,1121)" index="624784" value="1"/>
  <variable name="X(50,19,8)" index="625867" value="1"/>
  <variable name="X(50,33,29)" index="628084" value="1"/>
  <variable name="X(50,43,39)" index="630290" value="1"/>
  <variable name="X(50,48,44)" index="632491" value="1"/>
  <variable name="X(50,49,45)" index="634688" value="1"/>
  <variable name="X(50,51,47)" index="636886" value="1"/>
  <variable name="X(50,111,46)" index="639081" value="1"/>
  <variable name="X(51,50,1768)" index="642999" value="1"/>
  <variable name="X(51,112,47)" index="643474" value="1"/>
  <variable name="X(52,38,1780)" index="647403" value="1"/>
  <variable name="X(52,113,48)" index="647867" value="1"/>
  <variable name="X(53,36,1826)" index="651841" value="1"/>
  <variable name="X(53,114,49)" index="652260" value="1"/>
  <variable name="X(54,16,1884)" index="656291" value="1"/>
  <variable name="X(54,115,50)" index="656653" value="1"/>
  <variable name="X(55,41,1899)" index="660698" value="1"/>
  <variable name="X(55,116,274)" index="661269" value="1"/>
  <variable name="X(56,5,1)" index="663192" value="1"/>
  <variable name="X(56,6,5)" index="665392" value="1"/>
  <variable name="X(56,7,6)" index="667589" value="1"/>
  <variable name="X(56,11,10)" index="669789" value="1"/>
  <variable name="X(56,12,11)" index="671986" value="1"/>
  <variable name="X(56,15,57)" index="674228" value="1"/>
  <variable name="X(56,19,61)" index="676428" value="1"/>
  <variable name="X(56,28,26)" index="678589" value="1"/>
  <variable name="X(56,29,27)" index="680786" value="1"/>
  <variable name="X(56,38,60)" index="683015" value="1"/>
  <variable name="X(56,45,41)" index="685192" value="1"/>
  <variable name="X(56,60,55)" index="687402" value="1"/>
  <variable name="X(56,117,51)" index="689594" value="1"/>
  <variable name="X(57,18,134)" index="691873" value="1"/>
  <variable name="X(57,36,622)" index="694557" value="1"/>
  <variable name="X(57,38,621)" index="696752" value="1"/>
  <variable name="X(57,39,613)" index="698940" value="1"/>
  <variable name="X(57,118,52)" index="700575" value="1"/>
  <variable name="X(58,15,2027)" index="704746" value="1"/>
  <variable name="X(58,119,53)" index="704968" value="1"/>
  <variable name="X(59,10,9)" index="707120" value="1"/>
  <variable name="X(59,38,380)" index="709687" value="1"/>
  <variable name="X(59,120,54)" index="711557" value="1"/>
  <variable name="X(60,30,1388)" index="715087" value="1"/>
  <variable name="X(60,40,1034)" index="716929" value="1"/>
  <variable name="X(60,41,494)" index="718585" value="1"/>
  <variable name="X(60,56,2123)" index="722410" value="1"/>
  <variable name="X(60,121,55)" index="722538" value="1"/>
  <variable name="X(61,47,2169)" index="726848" value="1"/>
  <variable name="X(61,122,56)" index="726931" value="1"/>
 </variables>
</CPLEXSolution>
